NAME: ACTUAL_TOURS/amz1106
TYPE: TOUR
COMMENT: RouteID_75816fa1-df5e-48c5-b071-140886fdfda5
DIMENSION: 111
TOUR_SECTION
31
88
54
101
33
6
22
47
77
76
12
99
37
60
46
91
20
59
67
40
17
41
64
35
44
57
53
4
14
25
71
102
11
69
63
103
15
43
87
21
30
2
84
97
8
34
75
66
39
28
104
16
89
27
36
100
58
111
1
110
68
73
90
109
52
86
85
65
95
5
48
3
62
51
7
106
9
82
78
56
10
61
70
49
83
29
74
92
55
98
108
24
18
50
96
72
23
93
38
94
81
79
26
32
45
42
107
19
80
13
105
-1
EOF
